
Starting CP-SAT solver v9.15.6755
Parameters: random_seed: 2026073922 max_time_in_seconds: 2313.1702160268751 log_search_progress: true cp_model_presolve: true linearization_level: 2 num_search_workers: 4 cp_model_probing_level: 2 symmetry_level: 2

Initial satisfaction model '': (model_fingerprint: 0x3ad7b2f61ff8be5a)
#Variables: 724 (596 primary variables)
  - 724 Booleans in [0,1]
#kBoolAnd: 110 (#enforced: 110) (#literals: 330)
#kBoolOr: 110 (#enforced: 110) (#literals: 220)
#kExactlyOne: 87 (#literals: 261)
#kLinear1: 44 (#enforced: 6)
#kLinear2: 336 (#enforced: 336) (#complex_domain: 110)
#kLinear3: 1'600 (#enforced: 6)
#kLinearN: 1'132 (#enforced: 243) (#terms: 9'111)

Starting presolve at 0.00s
  6.51e-04s  0.00e+00d  [DetectDominanceRelations] 
  8.62e-03s  0.00e+00d  [PresolveToFixPoint] #num_loops=3 #num_dual_strengthening=1 
  3.62e-05s  0.00e+00d  [ExtractEncodingFromLinear] #potential_supersets=86 
  3.03e-04s  0.00e+00d  [DetectDuplicateColumns] 
  1.28e-04s  0.00e+00d  [DetectDuplicateConstraints] #duplicates=16 
[Symmetry] Graph for symmetry has 4'799 nodes and 15'188 arcs.
[Symmetry] Symmetry computation done. time: 0.00124605 dtime: 0.00175884
[SAT presolve] num removable Booleans: 220 / 600
[SAT presolve] num trivial clauses: 0
[SAT presolve] [0s] clauses:2'655 literals:7'264 vars:498 one_side_vars:58 simple_definition:1 singleton_clauses:0
[SAT presolve] [0.000217559s] clauses:2'654 literals:7'257 vars:498 one_side_vars:58 simple_definition:1 singleton_clauses:0
[SAT presolve] [0.000652678s] clauses:2'175 literals:6'447 vars:372 one_side_vars:65 simple_definition:65 singleton_clauses:0
  1.22e-04s  0.00e+00d  [DetectDuplicateConstraintsWithDifferentEnforcements] #without_enforcements=5 
  5.10e-03s  2.00e-03d  [Probe] #probed=1'241 #fixed_bools=13 #equiv=7 #new_binary_clauses=519 
  4.47e-04s  2.45e-04d  [MaxClique] Merged 527 constraints with 1'209 literals into 469 constraints with 1'106 literals
  8.21e-04s  0.00e+00d  [DetectDominanceRelations] 
  3.03e-03s  0.00e+00d  [PresolveToFixPoint] #num_loops=1 #num_dual_strengthening=1 
  1.12e-03s  0.00e+00d  [ProcessAtMostOneAndLinear] 
  9.49e-05s  0.00e+00d  [DetectDuplicateConstraints] #duplicates=8 
  8.52e-05s  0.00e+00d  [DetectDuplicateConstraintsWithDifferentEnforcements] 
  7.70e-04s  5.64e-05d  [DetectDominatedLinearConstraints] #relevant_constraints=807 #num_inclusions=292 #num_redundant=7 
  1.09e-04s  0.00e+00d  [DetectDifferentVariables] 
  7.64e-04s  8.50e-05d  [ProcessSetPPC] #relevant_constraints=2'924 #num_inclusions=110 
  2.71e-04s  3.30e-05d  [TransformClausesToExactlyOne] #num_amos=475 #num_clauses=1'652 #num_checked=1'652 
  3.88e-05s  0.00e+00d  [DetectEncodedComplexDomains] 
  3.49e-05s  1.00e-07d  [FindAlmostIdenticalLinearConstraints] #num_tested_pairs=1 
  8.66e-04s  1.32e-03d  [FindBigAtMostOneAndLinearOverlap] 
  1.41e-03s  1.20e-03d  [FindBigVerticalLinearOverlap] 
  3.77e-04s  6.72e-04d  [FindBigHorizontalLinearOverlap] #linears=435 
  2.95e-04s  2.65e-05d  [MergeClauses] #num_collisions=17 #num_merges=17 #num_saved_literals=85 
  7.87e-04s  0.00e+00d  [DetectDominanceRelations] 
  2.88e-03s  0.00e+00d  [PresolveToFixPoint] #num_loops=1 #num_dual_strengthening=1 
  7.98e-04s  0.00e+00d  [DetectDominanceRelations] 
  2.87e-03s  0.00e+00d  [PresolveToFixPoint] #num_loops=1 #num_dual_strengthening=1 
  2.07e-04s  0.00e+00d  [DetectDuplicateColumns] 
  9.05e-05s  0.00e+00d  [DetectDuplicateConstraints] 
[Symmetry] Graph for symmetry has 4'183 nodes and 13'078 arcs.
[Symmetry] Symmetry computation done. time: 0.000921715 dtime: 0.00139962
[SAT presolve] num removable Booleans: 93 / 453
[SAT presolve] num trivial clauses: 0
[SAT presolve] [0s] clauses:2'087 literals:6'166 vars:431 one_side_vars:134 simple_definition:77 singleton_clauses:0
[SAT presolve] [0.000208312s] clauses:2'087 literals:5'994 vars:431 one_side_vars:179 simple_definition:63 singleton_clauses:0
[SAT presolve] [0.000287781s] clauses:2'072 literals:5'976 vars:424 one_side_vars:184 simple_definition:44 singleton_clauses:0
  1.47e-04s  0.00e+00d  [DetectDuplicateConstraintsWithDifferentEnforcements] 
  4.64e-03s  1.64e-03d  [Probe] #probed=1'228 #new_binary_clauses=269 
  3.97e-04s  2.41e-04d  [MaxClique] Merged 470 constraints with 1'035 literals into 461 constraints with 1'033 literals
  8.19e-04s  0.00e+00d  [DetectDominanceRelations] 
  2.91e-03s  0.00e+00d  [PresolveToFixPoint] #num_loops=1 #num_dual_strengthening=1 
  1.05e-03s  0.00e+00d  [ProcessAtMostOneAndLinear] 
  1.31e-04s  0.00e+00d  [DetectDuplicateConstraints] 
  9.14e-05s  0.00e+00d  [DetectDuplicateConstraintsWithDifferentEnforcements] 
  1.60e-03s  6.66e-05d  [DetectDominatedLinearConstraints] #relevant_constraints=801 #num_inclusions=337 #num_redundant=1 
  1.15e-04s  0.00e+00d  [DetectDifferentVariables] 
  7.20e-04s  7.89e-05d  [ProcessSetPPC] #relevant_constraints=2'947 #num_inclusions=136 
  2.70e-04s  3.21e-05d  [TransformClausesToExactlyOne] #num_amos=461 #num_clauses=1'640 #num_checked=1'640 
  6.04e-05s  0.00e+00d  [DetectEncodedComplexDomains] 
  4.47e-05s  1.50e-07d  [FindAlmostIdenticalLinearConstraints] #num_tested_pairs=2 
  8.46e-04s  1.24e-03d  [FindBigAtMostOneAndLinearOverlap] 
  1.30e-03s  1.13e-03d  [FindBigVerticalLinearOverlap] 
  3.75e-04s  6.28e-04d  [FindBigHorizontalLinearOverlap] #linears=435 
  3.17e-04s  2.55e-05d  [MergeClauses] #num_collisions=77 #num_merges=77 #num_saved_literals=216 
  8.15e-04s  0.00e+00d  [DetectDominanceRelations] 
  2.90e-03s  0.00e+00d  [PresolveToFixPoint] #num_loops=1 #num_dual_strengthening=1 
  8.06e-04s  0.00e+00d  [DetectDominanceRelations] 
  2.90e-03s  0.00e+00d  [PresolveToFixPoint] #num_loops=1 #num_dual_strengthening=1 
  2.03e-04s  0.00e+00d  [DetectDuplicateColumns] 
  9.20e-05s  0.00e+00d  [DetectDuplicateConstraints] 
[Symmetry] Graph for symmetry has 4'100 nodes and 12'693 arcs.
[Symmetry] Symmetry computation done. time: 0.000925231 dtime: 0.0013627
[SAT presolve] num removable Booleans: 86 / 446
[SAT presolve] num trivial clauses: 0
[SAT presolve] [0s] clauses:2'058 literals:5'945 vars:424 one_side_vars:184 simple_definition:44 singleton_clauses:0
[SAT presolve] [0.000205376s] clauses:2'058 literals:5'945 vars:424 one_side_vars:184 simple_definition:44 singleton_clauses:0
[SAT presolve] [0.000263125s] clauses:2'058 literals:5'945 vars:424 one_side_vars:184 simple_definition:44 singleton_clauses:0
  1.08e-04s  0.00e+00d  [DetectDuplicateConstraintsWithDifferentEnforcements] 
  4.39e-03s  1.63e-03d  [Probe] #probed=1'228 #new_binary_clauses=269 
  3.78e-04s  2.30e-04d  [MaxClique] 
  8.24e-04s  0.00e+00d  [DetectDominanceRelations] 
  2.93e-03s  0.00e+00d  [PresolveToFixPoint] #num_loops=1 #num_dual_strengthening=1 
  1.05e-03s  0.00e+00d  [ProcessAtMostOneAndLinear] 
  1.22e-04s  0.00e+00d  [DetectDuplicateConstraints] 
  1.14e-04s  0.00e+00d  [DetectDuplicateConstraintsWithDifferentEnforcements] 
  1.14e-03s  5.96e-05d  [DetectDominatedLinearConstraints] #relevant_constraints=801 #num_inclusions=305 #num_redundant=1 
  1.22e-04s  0.00e+00d  [DetectDifferentVariables] 
  6.84e-04s  7.71e-05d  [ProcessSetPPC] #relevant_constraints=2'944 #num_inclusions=129 
  2.75e-04s  3.21e-05d  [TransformClausesToExactlyOne] #num_amos=458 #num_clauses=1'640 #num_checked=1'640 
  6.50e-05s  0.00e+00d  [DetectEncodedComplexDomains] 
  4.66e-05s  9.00e-08d  [FindAlmostIdenticalLinearConstraints] #num_tested_pairs=1 
  8.22e-04s  1.19e-03d  [FindBigAtMostOneAndLinearOverlap] 
  1.30e-03s  1.07e-03d  [FindBigVerticalLinearOverlap] #blocks=1 #saved_nz=34 
  3.59e-04s  5.94e-04d  [FindBigHorizontalLinearOverlap] #linears=436 
  3.31e-04s  2.55e-05d  [MergeClauses] #num_collisions=77 #num_merges=77 #num_saved_literals=216 
  8.47e-04s  0.00e+00d  [DetectDominanceRelations] 
  3.01e-03s  0.00e+00d  [PresolveToFixPoint] #num_loops=2 #num_dual_strengthening=1 
  2.93e-05s  0.00e+00d  [MergeNoOverlap] 
  2.99e-05s  0.00e+00d  [MergeNoOverlap2D] 

Presolve summary:
  - 32 affine relations were detected.
  - rule 'TODO dual: only one blocking constraint?' was applied 745 times.
  - rule 'TODO dual: tighten at most one' was applied 8 times.
  - rule 'TODO linear inclusion: superset is equality' was applied 104 times.
  - rule 'affine: new relation' was applied 32 times.
  - rule 'at_most_one: removed literals' was applied 49 times.
  - rule 'at_most_one: size one' was applied 48 times.
  - rule 'at_most_one: transformed into max clique' was applied 2 times.
  - rule 'bool_or: implications' was applied 80 times.
  - rule 'bool_or: only one literal' was applied 12 times.
  - rule 'bool_or: removed enforcement literal' was applied 557 times.
  - rule 'deductions: 645 stored' was applied 1 time.
  - rule 'duplicate: merged rhs of linear constraint' was applied 23 times.
  - rule 'duplicate: removed constraint' was applied 24 times.
  - rule 'duplicate: removed enforced constraint' was applied 5 times.
  - rule 'enforcement: false literal' was applied 55 times.
  - rule 'enforcement: true literal' was applied 22 times.
  - rule 'exactly_one: removed literals' was applied 28 times.
  - rule 'exactly_one: satisfied' was applied 15 times.
  - rule 'exactly_one: singleton' was applied 3 times.
  - rule 'exactly_one: size two' was applied 25 times.
  - rule 'exactly_one: x and not(x)' was applied 5 times.
  - rule 'incompatible linear: add implication' was applied 108 times.
  - rule 'linear + amo: empty after processing' was applied 5 times.
  - rule 'linear + amo: extracted enforcement literal' was applied 48 times.
  - rule 'linear + amo: trivial linear constraint' was applied 1 time.
  - rule 'linear inclusion: redundant containing constraint' was applied 2 times.
  - rule 'linear inclusion: redundant included constraint' was applied 4 times.
  - rule 'linear inclusion: sparsify superset' was applied 3 times.
  - rule 'linear matrix: common vertical rectangle' was applied 1 time.
  - rule 'linear1: x in domain' was applied 38 times.
  - rule 'linear2: convert ax + by != cte to clauses' was applied 268 times.
  - rule 'linear2: convert implied ax + by == cte to clauses' was applied 114 times.
  - rule 'linear2: implied ax + by = cte has only one solution' was applied 8 times.
  - rule 'linear: always true' was applied 405 times.
  - rule 'linear: coefficient strengthening by increasing it' was applied 3 times.
  - rule 'linear: empty' was applied 1 time.
  - rule 'linear: extracted at most one (max)' was applied 1 time.
  - rule 'linear: fixed or dup variables' was applied 882 times.
  - rule 'linear: negative clause' was applied 1'288 times.
  - rule 'linear: negative reified and' was applied 66 times.
  - rule 'linear: never in domain' was applied 5 times.
  - rule 'linear: positive at most one' was applied 40 times.
  - rule 'linear: positive equal one' was applied 1 time.
  - rule 'linear: reduced variable domains' was applied 2 times.
  - rule 'linear: remapped using affine relations' was applied 22 times.
  - rule 'presolve: 110 unused variables removed.' was applied 1 time.
  - rule 'presolve: iteration' was applied 3 times.
  - rule 'probing: bool_or reduced to implication' was applied 35 times.
  - rule 'probing: simplified clauses' was applied 19 times.
  - rule 'setppc: bool_or in at_most_one' was applied 7 times.
  - rule 'setppc: exactly_one included in linear' was applied 1 time.
  - rule 'setppc: reduced linear coefficients' was applied 1 time.
  - rule 'setppc: removed dominated constraints' was applied 81 times.

Presolved satisfaction model '': (model_fingerprint: 0x46d2976c0b1d007)
#Variables: 447 (383 primary variables)
  - 446 Booleans in [0,1]
  - 1 in [0,2]
#kAtMostOne: 40 (#literals: 175)
#kBoolAnd: 252 (#enforced: 252) (#literals: 670)
#kBoolAndClauses: 77 (#enforced: 77 #multi: 77) (#literals: 370)
#kBoolOr: 1'486 (#literals: 4'523)
#kExactlyOne: 45 (#literals: 188)
#kLinearN: 802 (#enforced: 106) (#terms: 5'518)
[Symmetry] Graph for symmetry has 3'825 nodes and 12'644 arcs.
[Symmetry] Symmetry computation done. time: 0.000851733 dtime: 0.00122649

Preloading model.
#Model   0.09s var:447/447 constraints:2702/2702

Starting search at 0.09s with 4 workers.
3 full problem subsolvers: [default_lp, max_lp, no_lp]
1 first solution subsolver: [fj]
2 interleaved subsolvers: [feasibility_pump, rins/rens]
2 helper subsolvers: [neighborhood_helper, synchronization_agent]

#Model  11.92s var:446/447 constraints:2700/2702
#Model  15.93s var:445/447 constraints:2683/2702
#Model 168.79s var:444/447 constraints:2681/2702
#Model 709.95s var:442/447 constraints:2644/2702
#Model 716.35s var:441/447 constraints:2625/2702
#Model 717.81s var:440/447 constraints:2608/2702
#Model 718.25s var:439/447 constraints:2589/2702
#Model 719.98s var:438/447 constraints:2570/2702
#Done  720.85s no_lp

Task timing                   n [     min,      max]      avg      dev     time         n [     min,      max]      avg      dev    dtime
        'default_lp':         1 [  12.01m,   12.01m]   12.01m   0.00ns   12.01m         2 [  1.88ms,   12.43m]    6.22m    6.22m   12.43m
  'feasibility_pump':      3576 [816.51us, 122.28ms]   1.41ms   2.04ms    5.04s      3575 [266.53us, 109.70ms] 297.63us   1.83ms    1.06s
                'fj':      2613 [113.93ms, 206.73ms] 136.88ms   9.19ms    5.96m      2613 [100.00ms, 100.13ms] 100.02ms  15.38us    4.36m
            'max_lp':         1 [  12.01m,   12.01m]   12.01m   0.00ns   12.01m         2 [ 75.51ms,   15.78m]    7.89m    7.89m   15.78m
             'no_lp':         1 [  12.01m,   12.01m]   12.01m   0.00ns   12.01m         2 [  1.44ms,   24.79m]   12.40m   12.40m   24.79m
         'rins/rens':      3295 [ 24.14ms, 193.05ms] 108.55ms  39.43ms    5.96m      3295 [411.13us, 100.27ms]  68.41ms  37.15ms    3.76m

Search stats     Bools  Conflicts    Branches  Restarts  BacktrackToRoot  Backtrack   BoolPropag  IntegerPropag
  'default_lp':    446     79'622   4'481'915       391          697'958    956'413   41'698'987     41'042'774
      'max_lp':    446     49'201   5'506'187       227          831'716  1'072'261   50'727'031     53'433'474
       'no_lp':    446  7'831'979  11'377'156    27'610          299'191  8'093'596  668'846'008    124'874'998

SAT formula      Fixed  Equiv  Total  VarLeft  BinaryClauses  PermanentClauses  TemporaryClauses
  'default_lp':      3      2    446      441          2'028            26'925             6'780
      'max_lp':      9      2    446      435          2'158            18'566             2'755
       'no_lp':    242      2    446      202          1'950            36'435               878

SAT stats        ClassicMinim   LitRemoved  LitRemovedBinary   LitLearned  LitForgotten   Subsumed
  'default_lp':        69'239      710'189           484'983    1'711'843       787'368     33'405
      'max_lp':        40'371      412'415           222'718      926'198       351'021     19'893
       'no_lp':     7'049'997  116'974'084        46'274'759  172'668'864   132'803'266  2'237'722

Vivification     Clauses  Decisions  LitTrue  Subsumed  LitRemoved  DecisionReused  Conflicts
  'default_lp':  767'316  4'277'728        3     9'682      96'978         230'135      1'189
      'max_lp':  895'206  5'320'488        0    12'620     125'043         255'839      1'474
       'no_lp':  246'729  2'066'743        1    15'100     210'535          74'468      1'397

Clause deletion    at_true  l_and_not(l)  to_binary  sub_conflict  sub_extra  sub_decisions  sub_eager  sub_vivify  sub_probing  sub_inpro  blocked  eliminated  forgotten    promoted  conflicts
    'default_lp':      184             0          3        32'770        199          1'196        635       9'682        4'094     10'329        0           0     27'051     143'400     79'622
        'max_lp':    5'856             1         24        19'661        140            533        232      12'620        6'091     11'941        0           0     13'642      81'111     49'201
         'no_lp':   49'922             0         76     2'194'363     16'718         99'535     43'359      15'100       15'484    119'671        0           0  5'244'223  17'926'158  7'831'979

Lp stats         Component  Iterations  AddedCuts  OPTIMAL  DUAL_F.  DUAL_U.
  'default_lp':          1   9'658'366     25'862   98'822        1   59'169
      'max_lp':          1   4'365'140     24'784   12'929   30'842   12'133

Lp dimension        Final dimension of first component
  'default_lp':    323 rows, 318 columns, 4502 entries
      'max_lp':  1356 rows, 447 columns, 25143 entries

Lp debug         CutPropag  CutEqPropag  Adjust  Overflow      Bad  BadScaling
  'default_lp':          0            0  59'168         0  698'075           0
      'max_lp':          0           31  12'133         0  666'054           0

Lp pool          Constraints  Updates  Simplif  Merged  Shortened  Split  Strengthened      Cuts/Call
  'default_lp':       10'622    6'866        0       0          7      0             0  25'862/28'492
      'max_lp':       12'797    8'820        0       2         30      0           722  24'784/34'046

Lp Cut            default_lp  max_lp
          CG_FF:         349      55
           CG_K:         172       3
          CG_KL:         166       2
           CG_R:         374      27
         Clique:           -     102
             IB:           -       1
       MIR_1_FF:         139     431
        MIR_1_K:          22       2
       MIR_1_KL:          88       7
        MIR_1_R:         137     180
      MIR_1_RLT:           -   2'436
       MIR_2_FF:         106     274
        MIR_2_K:          17      49
       MIR_2_KL:          48      20
        MIR_2_R:         131     218
       MIR_3_FF:          95      69
        MIR_3_K:           8       9
       MIR_3_KL:          35       9
        MIR_3_R:          78      85
       MIR_4_FF:          29      16
        MIR_4_K:           1       2
       MIR_4_KL:          13       2
        MIR_4_R:          45      65
       MIR_5_FF:           7       4
       MIR_5_KL:           4       1
        MIR_5_R:          29      68
       MIR_6_FF:           3       2
        MIR_6_K:           1       -
       MIR_6_KL:           1       -
        MIR_6_R:          29      74
      MIR_6_RBP:           -       1
   ZERO_HALF_FF:         102     266
    ZERO_HALF_K:          20       1
   ZERO_HALF_KL:          26       -
    ZERO_HALF_R:      23'584  20'299
  ZERO_HALF_RBP:           3       4

LNS stats       Improv/Calls  Closed  Difficulty  TimeLimit
  'rins/rens':     3295/3295     50%    7.97e-01       0.10

LS stats                                    Batches  Restarts/Perturbs   LinMoves   GenMoves  CompoundMoves  Bactracks  WeightUpdates  ScoreComputed
                             'fj_restart':       63                 31  1'832'854          0              0          0      1'596'094        230'800
                    'fj_restart_compound':      115                 36          0  1'153'108         80'450    536'255          2'801     19'587'809
                'fj_restart_compound_obj':      167                 39          0  1'699'236         96'875    801'124          4'591     28'633'629
            'fj_restart_compound_perturb':      136                 56          0  1'337'309        112'205    612'447          3'001     23'059'335
        'fj_restart_compound_perturb_obj':      120                 39          0  1'191'714         83'645    553'947          2'852     20'458'737
                       'fj_restart_decay':      217                 40  6'350'932          0              0          0        297'805        549'814
              'fj_restart_decay_compound':      141                 41          0  1'561'968        264'956    648'433          1'918     24'228'484
          'fj_restart_decay_compound_obj':      115                 35          0  1'256'800        208'772    523'917          1'537     19'756'376
      'fj_restart_decay_compound_perturb':      125                 40          0  1'352'971        228'918    561'942          1'708     21'490'135
  'fj_restart_decay_compound_perturb_obj':      322                 47          0  3'757'078        632'316  1'562'272          4'383     55'800'261
                   'fj_restart_decay_obj':      120                 44  3'508'750          0              0          0        164'806        301'855
               'fj_restart_decay_perturb':      125                 42  3'652'012          0              0          0        171'190        313'580
           'fj_restart_decay_perturb_obj':      263                 47  7'693'929          0              0          0        360'943        664'483
                         'fj_restart_obj':      133                 45  3'656'250          0              0          0      3'485'751        467'844
                     'fj_restart_perturb':      257                 44  6'952'999          0              0          0      6'862'385      1'296'326
                 'fj_restart_perturb_obj':      194                 51  5'745'425          0              0          0      5'055'656        615'581

Solution repositories    Added  Queried  Synchro
    'alternative_path':      0        0        0
      'best_solutions':      0        0        0
   'fj solution hints':    669        0      669
        'lp solutions':    425    3'295      422
                'pump':      0        0

Improving bounds shared    Num  Sym
            'default_lp':    3    0
                 'no_lp':  111    0

Clauses shared    #Exported  #Imported  #BinaryRead  #BinaryTotal
   'default_lp':      2'891     38'741          385           674
       'max_lp':      3'544     43'348          588           674
        'no_lp':     43'295      5'930          672           674

LRAT_status: NA
CpSolverResponse summary:
status: INFEASIBLE
objective: NA
best_bound: NA
integers: 318
booleans: 446
conflicts: 7831979
branches: 11377156
propagations: 668846008
integer_propagations: 124874998
restarts: 27610
lp_iterations: 0
walltime: 720.906
usertime: 720.906
deterministic_time: 3668.05
gap_integral: 0

{
  "board_size": 22,
  "parity_proved": 0,
  "target": 34,
  "child_id": 1822,
  "child_count": 2640,
  "partition": "unknown_pair_x_diag_plus_twos_x_diag_minus_twos",
  "build_seconds": 0.0791633129119873,
  "workers": 4,
  "requested_seed": 2026073922,
  "effective_seed": 2026073922,
  "main_diagonal_pair": [
    4,
    12
  ],
  "pair_index": 79,
  "diag_plus_twos": 16,
  "diag_minus_twos": 16,
  "pair_excess": 30,
  "residual_certificate_slack": 82,
  "analytic_minimum_line_defect": 24,
  "analytic_defect_details": {
    "row_costs": {
      "12": 6,
      "13": 3,
      "14": 0,
      "15": 0,
      "16": 0,
      "17": 0
    },
    "column_costs": {
      "12": 6,
      "13": 3,
      "14": 0,
      "15": 0,
      "16": 0,
      "17": 0
    },
    "plus_cost": 24,
    "minus_cost": 0,
    "row_column_minimum": 0
  },
  "maximal_line_constraints": 2455,
  "analytic_infeasible": false,
  "allowed_points": 242,
  "status": "INFEASIBLE",
  "proof_method": "cp_sat_all_lines_with_certificate_profile_cuts",
  "elapsed_seconds": 720.9068646430969,
  "branches": 11377156,
  "conflicts": 7831979
}
